
ASes= { 1, 2, 3, 4, 5, 6, 7, 8, 9, 10, 11 } ;


Objects= { 1, 2, 3, 4, 5, 6, 7, 8, 9, 10, 11, 12, 13, 14, 15, 16, 17, 18, 19, 20, 21, 22, 23, 24, 25, 26, 27, 28, 29, 30, 31, 32, 33, 34, 35, 36, 37, 38, 39, 40, 41, 42, 43, 44, 45, 46, 47, 48, 49, 50, 51, 52, 53, 54, 55, 56, 57, 58, 59, 60, 61, 62, 63, 64, 65, 66, 67, 68, 69, 70, 71, 72, 73, 74, 75, 76, 77, 78, 79, 80, 81, 82, 83, 84, 85, 86, 87, 88, 89, 90, 91, 92, 93, 94, 95, 96, 97, 98, 99, 100 } ;


QualityLevels= { 0, 1, 2, 3, 4, 5 } ;

Arcs = {<2,1,490000>, <1,2,490000>, <11,1,490000>, <1,11,490000>, <11,2,490000>, <2,11,490000>, <11,10,490000>, <10,11,490000>, <3,2,490000>, <2,3,490000>, <4,3,490000>, <3,4,490000>, <5,4,490000>, <4,5,490000>, <6,5,490000>, <5,6,490000>, <7,6,490000>, <6,7,490000>, <8,4,490000>, <4,8,490000>, <8,7,490000>, <7,8,490000>, <9,3,490000>, <3,9,490000>, <9,8,490000>, <8,9,490000>, <10,9,490000>, <9,10,490000>};


RatePerQuality= [ 0  300  700  1500  2500  3500 ] ;


CacheSpacePerQuality= [ 10000  11.25  26.25  56.25  93.75  131.25 ] ;


UtilityPerQuality= [ 0  0.2  0.4  0.6  0.8  1 ] ;


ObjectsPublishedByProducers=[ [ 0  0  0  0  0  0  0  1  0  0  0 ]  [ 0  0  0  0  0  0  0  1  0  0  0 ]  [ 0  0  0  0  0  0  0  1  0  0  0 ]  [ 0  0  0  0  0  0  0  1  0  0  0 ]  [ 0  0  0  0  0  0  0  1  0  0  0 ]  [ 0  0  0  0  0  0  0  1  0  0  0 ]  [ 0  0  0  0  0  0  0  1  0  0  0 ]  [ 0  0  0  0  0  0  0  1  0  0  0 ]  [ 0  0  0  0  0  0  0  1  0  0  0 ]  [ 0  0  0  0  0  0  0  1  0  0  0 ]  [ 0  0  0  0  0  0  0  1  0  0  0 ]  [ 0  0  0  0  0  0  0  1  0  0  0 ]  [ 0  0  0  0  0  0  0  1  0  0  0 ]  [ 0  0  0  0  0  0  0  1  0  0  0 ]  [ 0  0  0  0  0  0  0  1  0  0  0 ]  [ 0  0  0  0  0  0  0  1  0  0  0 ]  [ 0  0  0  0  0  0  0  1  0  0  0 ]  [ 0  0  0  0  0  0  0  1  0  0  0 ]  [ 0  0  0  0  0  0  0  1  0  0  0 ]  [ 0  0  0  0  0  0  0  1  0  0  0 ]  [ 0  0  0  0  0  0  0  1  0  0  0 ]  [ 0  0  0  0  0  0  0  1  0  0  0 ]  [ 0  0  0  0  0  0  0  1  0  0  0 ]  [ 0  0  0  0  0  0  0  1  0  0  0 ]  [ 0  0  0  0  0  0  0  1  0  0  0 ]  [ 0  0  0  0  0  0  0  1  0  0  0 ]  [ 0  0  0  0  0  0  0  1  0  0  0 ]  [ 0  0  0  0  0  0  0  1  0  0  0 ]  [ 0  0  0  0  0  0  0  1  0  0  0 ]  [ 0  0  0  0  0  0  0  1  0  0  0 ]  [ 0  0  0  0  0  0  0  1  0  0  0 ]  [ 0  0  0  0  0  0  0  1  0  0  0 ]  [ 0  0  0  0  0  0  0  1  0  0  0 ]  [ 0  0  0  0  0  0  0  1  0  0  0 ]  [ 0  0  0  0  0  0  0  1  0  0  0 ]  [ 0  0  0  0  0  0  0  1  0  0  0 ]  [ 0  0  0  0  0  0  0  1  0  0  0 ]  [ 0  0  0  0  0  0  0  1  0  0  0 ]  [ 0  0  0  0  0  0  0  1  0  0  0 ]  [ 0  0  0  0  0  0  0  1  0  0  0 ]  [ 0  0  0  0  0  0  0  1  0  0  0 ]  [ 0  0  0  0  0  0  0  1  0  0  0 ]  [ 0  0  0  0  0  0  0  1  0  0  0 ]  [ 0  0  0  0  0  0  0  1  0  0  0 ]  [ 0  0  0  0  0  0  0  1  0  0  0 ]  [ 0  0  0  0  0  0  0  1  0  0  0 ]  [ 0  0  0  0  0  0  0  1  0  0  0 ]  [ 0  0  0  0  0  0  0  1  0  0  0 ]  [ 0  0  0  0  0  0  0  1  0  0  0 ]  [ 0  0  0  0  0  0  0  1  0  0  0 ]  [ 0  0  0  0  0  0  0  1  0  0  0 ]  [ 0  0  0  0  0  0  0  1  0  0  0 ]  [ 0  0  0  0  0  0  0  1  0  0  0 ]  [ 0  0  0  0  0  0  0  1  0  0  0 ]  [ 0  0  0  0  0  0  0  1  0  0  0 ]  [ 0  0  0  0  0  0  0  1  0  0  0 ]  [ 0  0  0  0  0  0  0  1  0  0  0 ]  [ 0  0  0  0  0  0  0  1  0  0  0 ]  [ 0  0  0  0  0  0  0  1  0  0  0 ]  [ 0  0  0  0  0  0  0  1  0  0  0 ]  [ 0  0  0  0  0  0  0  1  0  0  0 ]  [ 0  0  0  0  0  0  0  1  0  0  0 ]  [ 0  0  0  0  0  0  0  1  0  0  0 ]  [ 0  0  0  0  0  0  0  1  0  0  0 ]  [ 0  0  0  0  0  0  0  1  0  0  0 ]  [ 0  0  0  0  0  0  0  1  0  0  0 ]  [ 0  0  0  0  0  0  0  1  0  0  0 ]  [ 0  0  0  0  0  0  0  1  0  0  0 ]  [ 0  0  0  0  0  0  0  1  0  0  0 ]  [ 0  0  0  0  0  0  0  1  0  0  0 ]  [ 0  0  0  0  0  0  0  1  0  0  0 ]  [ 0  0  0  0  0  0  0  1  0  0  0 ]  [ 0  0  0  0  0  0  0  1  0  0  0 ]  [ 0  0  0  0  0  0  0  1  0  0  0 ]  [ 0  0  0  0  0  0  0  1  0  0  0 ]  [ 0  0  0  0  0  0  0  1  0  0  0 ]  [ 0  0  0  0  0  0  0  1  0  0  0 ]  [ 0  0  0  0  0  0  0  1  0  0  0 ]  [ 0  0  0  0  0  0  0  1  0  0  0 ]  [ 0  0  0  0  0  0  0  1  0  0  0 ]  [ 0  0  0  0  0  0  0  1  0  0  0 ]  [ 0  0  0  0  0  0  0  1  0  0  0 ]  [ 0  0  0  0  0  0  0  1  0  0  0 ]  [ 0  0  0  0  0  0  0  1  0  0  0 ]  [ 0  0  0  0  0  0  0  1  0  0  0 ]  [ 0  0  0  0  0  0  0  1  0  0  0 ]  [ 0  0  0  0  0  0  0  1  0  0  0 ]  [ 0  0  0  0  0  0  0  1  0  0  0 ]  [ 0  0  0  0  0  0  0  1  0  0  0 ]  [ 0  0  0  0  0  0  0  1  0  0  0 ]  [ 0  0  0  0  0  0  0  1  0  0  0 ]  [ 0  0  0  0  0  0  0  1  0  0  0 ]  [ 0  0  0  0  0  0  0  1  0  0  0 ]  [ 0  0  0  0  0  0  0  1  0  0  0 ]  [ 0  0  0  0  0  0  0  1  0  0  0 ]  [ 0  0  0  0  0  0  0  1  0  0  0 ]  [ 0  0  0  0  0  0  0  1  0  0  0 ]  [ 0  0  0  0  0  0  0  1  0  0  0 ]  [ 0  0  0  0  0  0  0  1  0  0  0 ]  [ 0  0  0  0  0  0  0  1  0  0  0 ] ];

ObjRequests = {  <1,5,260>, <2,5,97>, <3,5,115>, <4,5,101>, <5,5,36>, <6,5,40>, <7,5,54>, <8,5,37>, <9,5,28>, <10,5,50>, <11,5,17>, <12,5,32>, <13,5,14>, <14,5,40>, <15,5,19>, <16,5,41>, <17,5,13>, <18,5,10>, <19,5,2>, <20,5,15>, <21,5,2>, <22,5,18>, <23,5,5>, <24,5,16>, <25,5,5>, <26,5,21>, <27,5,6>, <28,5,35>, <29,5,13>, <30,5,10>, <31,5,2>, <32,5,9>, <33,5,2>, <34,5,16>, <35,5,15>, <36,5,21>, <37,5,7>, <38,5,27>, <39,5,19>, <40,5,4>, <41,5,10>, <42,5,18>, <43,5,3>, <45,5,9>, <46,5,15>, <47,5,9>, <48,5,5>, <49,5,14>, <50,5,7>, <51,5,8>, <52,5,2>, <54,5,7>, <55,5,9>, <56,5,1>, <57,5,6>, <58,5,2>, <60,5,9>, <61,5,9>, <62,5,11>, <63,5,2>, <64,5,6>, <65,5,5>, <67,5,2>, <68,5,3>, <69,5,9>, <70,5,1>, <71,5,6>, <72,5,2>, <73,5,8>, <74,5,7>, <75,5,4>, <76,5,4>, <77,5,1>, <78,5,2>, <79,5,7>, <80,5,1>, <81,5,1>, <82,5,2>, <83,5,2>, <84,5,3>, <85,5,4>, <86,5,9>, <87,5,6>, <88,5,5>, <89,5,1>, <90,5,1>, <91,5,8>, <92,5,12>, <94,5,3>, <95,5,2>, <97,5,4>, <98,5,1>, <99,5,5>, <100,5,1>, <1,6,29>, <2,6,92>, <3,6,122>, <4,6,54>, <5,6,27>, <6,6,120>, <7,6,63>, <8,6,84>, <9,6,6>, <10,6,13>, <11,6,3>, <12,6,16>, <13,6,20>, <14,6,6>, <15,6,30>, <16,6,21>, <17,6,30>, <18,6,31>, <19,6,30>, <20,6,12>, <21,6,19>, <22,6,4>, <24,6,15>, <25,6,1>, <26,6,4>, <27,6,23>, <28,6,3>, <29,6,1>, <30,6,1>, <31,6,1>, <32,6,4>, <33,6,2>, <34,6,4>, <35,6,26>, <36,6,11>, <37,6,21>, <38,6,10>, <39,6,14>, <40,6,17>, <41,6,16>, <42,6,2>, <43,6,3>, <44,6,2>, <45,6,6>, <46,6,2>, <48,6,23>, <49,6,1>, <50,6,3>, <51,6,3>, <52,6,3>, <53,6,11>, <54,6,5>, <55,6,8>, <56,6,2>, <57,6,4>, <58,6,6>, <59,6,15>, <60,6,3>, <61,6,5>, <63,6,6>, <64,6,2>, <65,6,2>, <67,6,11>, <68,6,14>, <69,6,5>, <70,6,6>, <72,6,11>, <73,6,11>, <74,6,4>, <75,6,7>, <76,6,3>, <77,6,7>, <78,6,3>, <79,6,4>, <80,6,3>, <81,6,10>, <82,6,1>, <83,6,8>, <84,6,5>, <85,6,2>, <86,6,2>, <87,6,1>, <89,6,10>, <90,6,8>, <93,6,2>, <94,6,10>, <95,6,1>, <97,6,1>, <98,6,4>, <99,6,5>, <100,6,3>, <1,7,32>, <2,7,133>, <3,7,227>, <4,7,92>, <5,7,14>, <6,7,69>, <7,7,46>, <8,7,12>, <9,7,49>, <10,7,63>, <11,7,59>, <12,7,11>, <13,7,28>, <14,7,7>, <15,7,12>, <16,7,31>, <17,7,15>, <18,7,15>, <19,7,4>, <20,7,12>, <21,7,41>, <22,7,9>, <23,7,18>, <24,7,16>, <25,7,20>, <26,7,3>, <27,7,5>, <28,7,1>, <29,7,23>, <30,7,2>, <31,7,31>, <32,7,9>, <34,7,8>, <35,7,6>, <36,7,7>, <37,7,8>, <38,7,1>, <39,7,2>, <41,7,3>, <42,7,3>, <43,7,24>, <44,7,4>, <45,7,14>, <46,7,14>, <47,7,13>, <48,7,6>, <49,7,7>, <50,7,1>, <51,7,7>, <52,7,5>, <54,7,4>, <55,7,7>, <56,7,7>, <57,7,6>, <58,7,1>, <59,7,9>, <60,7,1>, <61,7,10>, <62,7,8>, <63,7,10>, <64,7,5>, <65,7,4>, <66,7,10>, <67,7,1>, <68,7,1>, <69,7,13>, <70,7,10>, <71,7,1>, <72,7,6>, <73,7,8>, <74,7,1>, <76,7,3>, <77,7,8>, <78,7,7>, <80,7,4>, <81,7,2>, <82,7,3>, <83,7,3>, <85,7,2>, <86,7,4>, <87,7,1>, <88,7,2>, <89,7,3>, <90,7,5>, <92,7,2>, <94,7,1>, <95,7,7>, <96,7,7>, <97,7,1>, <98,7,6>, <99,7,3>, <100,7,8>, <1,1,637>, <2,1,334>, <3,1,48>, <4,1,36>, <5,1,170>, <6,1,24>, <7,1,33>, <8,1,73>, <9,1,79>, <10,1,9>, <11,1,60>, <12,1,52>, <13,1,55>, <14,1,35>, <15,1,4>, <16,1,2>, <17,1,19>, <18,1,11>, <19,1,11>, <20,1,30>, <21,1,7>, <22,1,43>, <23,1,4>, <24,1,2>, <25,1,8>, <26,1,3>, <27,1,25>, <28,1,14>, <29,1,9>, <30,1,32>, <31,1,2>, <32,1,8>, <33,1,23>, <34,1,2>, <36,1,6>, <37,1,11>, <38,1,7>, <40,1,1>, <41,1,6>, <42,1,6>, <43,1,2>, <44,1,10>, <45,1,13>, <46,1,10>, <48,1,5>, <49,1,1>, <50,1,10>, <51,1,16>, <52,1,11>, <53,1,11>, <54,1,5>, <55,1,11>, <56,1,1>, <57,1,5>, <58,1,4>, <59,1,5>, <60,1,3>, <61,1,3>, <62,1,5>, <63,1,2>, <64,1,11>, <65,1,2>, <66,1,2>, <67,1,7>, <68,1,1>, <70,1,1>, <71,1,11>, <72,1,8>, <74,1,9>, <75,1,5>, <76,1,5>, <77,1,6>, <78,1,5>, <79,1,6>, <80,1,1>, <81,1,1>, <82,1,5>, <83,1,4>, <84,1,4>, <85,1,5>, <86,1,2>, <87,1,3>, <88,1,4>, <89,1,4>, <90,1,11>, <91,1,6>, <92,1,2>, <93,1,6>, <94,1,2>, <95,1,3>, <96,1,11>, <97,1,1>, <98,1,2>, <99,1,1>, <100,1,2>, <1,10,551>, <2,10,171>, <3,10,63>, <4,10,128>, <5,10,89>, <6,10,19>, <7,10,16>, <8,10,1>, <9,10,23>, <10,10,5>, <11,10,4>, <12,10,19>, <13,10,3>, <14,10,18>, <15,10,22>, <16,10,11>, <17,10,6>, <18,10,1>, <19,10,25>, <21,10,6>, <23,10,38>, <24,10,7>, <25,10,18>, <26,10,13>, <27,10,8>, <28,10,6>, <29,10,10>, <30,10,2>, <31,10,11>, <32,10,17>, <33,10,17>, <34,10,12>, <35,10,2>, <36,10,5>, <37,10,5>, <38,10,2>, <40,10,13>, <41,10,2>, <42,10,9>, <43,10,10>, <44,10,5>, <45,10,3>, <46,10,2>, <47,10,12>, <48,10,5>, <49,10,13>, <50,10,5>, <51,10,2>, <52,10,8>, <53,10,5>, <54,10,9>, <56,10,11>, <57,10,10>, <58,10,9>, <59,10,8>, <60,10,12>, <61,10,1>, <62,10,1>, <63,10,2>, <64,10,1>, <65,10,8>, <66,10,2>, <67,10,4>, <69,10,1>, <70,10,8>, <71,10,10>, <73,10,1>, <74,10,2>, <75,10,1>, <78,10,4>, <79,10,1>, <80,10,11>, <81,10,4>, <82,10,3>, <83,10,7>, <84,10,6>, <85,10,1>, <86,10,2>, <87,10,1>, <88,10,3>, <89,10,3>, <91,10,3>, <92,10,2>, <93,10,4>, <94,10,1>, <95,10,7>, <96,10,7>, <97,10,7>, <98,10,1>, <100,10,1> };

MaxCacheStorageAtSingleAS= [ 131.25  131.25  131.25  131.25  131.25  131.25  131.25  131.25  131.25  131.25  131.25 ] ;

MaxCacheStorage = 1443.75 ;
SolutionGap = 0.01 ;
